RT is False
Default write of storage_offers_DA.csv just to have a file (but constraint should be inactive)
Reading model...
...model read.
creating competitive generators file...
...competitive generators recorded.
Loading data...
.. day-ahead data with real-time VRE data read.
Compiling instance...
...instance created.
Creating Offer Mitigation (model will solve as dispatch if TRUE)...
NOTE: storage offers will not be mitigated
...storage offer mitigation file created
Converting model to MPEC...
...converted
NOTE: initial MIP solve with only storage competitive to get feasible solution
Solving...

Welcome to IBM(R) ILOG(R) CPLEX(R) Interactive Optimizer 12.9.0.0
  with Simplex, Mixed Integer & Barrier Optimizers
5725-A06 5725-A29 5724-Y48 5724-Y49 5724-Y54 5724-Y55 5655-Y21
Copyright IBM Corp. 1988, 2019.  All Rights Reserved.

Type 'help' for a list of available commands.
Type 'help' followed by a command name for more
information on commands.

CPLEX> Logfile 'cplex.log' closed.
Logfile 'C:\Users\llavin\Desktop\test826\logs\tmp11965sf1.cplex.log' open.
CPLEX> New value for parallel optimization mode: -1
CPLEX> New value for mixed integer optimality gap tolerance: 0.01
CPLEX> New value for integrality tolerance: 1e-09
CPLEX> New value for feasibility tolerance: 0.001
CPLEX> New value for deterministic time limit in ticks: 75000
CPLEX> Problem 'C:\Users\llavin\Desktop\test826\logs\tmpsyjq_wlq.pyomo.lp' read.
Read time = 0.25 sec. (14.73 ticks)
CPLEX> Problem name         : C:\Users\llavin\Desktop\test826\logs\tmpsyjq_wlq.pyomo.lp
Objective sense      : Maximize
Variables            :   53805  [Nneg: 1,  Box: 22000,  Free: 4464,
                                 Binary: 27340]
Objective nonzeros   :    9029
Linear constraints   :  123205  [Less: 41346,  Greater: 59096,  Equal: 22763]
  Nonzeros           :  291753
  RHS nonzeros       :   67491

Variables            : Min LB: -5000.000        Max UB: 1000000.       
Objective nonzeros   : Min   : 0.4000000        Max   : 2500.000       
Linear constraints   :
  Nonzeros           : Min   : 0.4000000        Max   : 1000000.       
  RHS nonzeros       : Min   : 0.4000000        Max   : 1000000.       
CPLEX> CPXPARAM_Parallel                                -1
CPXPARAM_Simplex_Tolerances_Feasibility          0.001
CPXPARAM_DetTimeLimit                            75000
CPXPARAM_MIP_Tolerances_MIPGap                   0.01
CPXPARAM_MIP_Tolerances_Integrality              1.0000000000000001e-09
Tried aggregator 3 times.
MIP Presolve eliminated 88701 rows and 19025 columns.
MIP Presolve added 3371 rows and 0 columns.
MIP Presolve modified 24870 coefficients.
Aggregator did 12959 substitutions.
Reduced MIP has 24916 rows, 21265 columns, and 71055 nonzeros.
Reduced MIP has 8400 binaries, 0 generals, 0 SOSs, and 0 indicators.
Presolve time = 0.30 sec. (176.09 ticks)
Probing fixed 385 vars, tightened 2834 bounds.
Probing time = 1.23 sec. (893.11 ticks)
Tried aggregator 2 times.
MIP Presolve eliminated 876 rows and 779 columns.
MIP Presolve modified 2213 coefficients.
Aggregator did 44 substitutions.
Reduced MIP has 23996 rows, 20442 columns, and 68367 nonzeros.
Reduced MIP has 8013 binaries, 0 generals, 0 SOSs, and 0 indicators.
Presolve time = 0.11 sec. (69.47 ticks)
Probing time = 0.05 sec. (15.85 ticks)
Clique table members: 6293.
MIP emphasis: balance optimality and feasibility.
MIP search method: dynamic search.
Parallel mode: opportunistic, using up to 32 threads.
Root relaxation solution time = 0.42 sec. (560.52 ticks)

        Nodes                                         Cuts/
   Node  Left     Objective  IInf  Best Integer    Best Bound    ItCnt     Gap

      0     0      -23.4747   659                    -23.4747     7071         
      0     3    infeasible                          -23.4747     7080         
Elapsed time = 7.70 sec. (4418.58 ticks, tree = 0.02 MB, solutions = 0)
    494   204     -146.1062     2                    -26.8718     9921         
    896   485   -72467.7378    11                    -26.8718    18902         
   1399   717     -291.0927     3                    -26.8718    26585         
   2022  1039     -275.7578     3                    -26.8718    36518         
   2630  1494    infeasible                          -26.8718    52352         
   3315  1829     -374.0247     2                    -26.8718    62635         
   3973  2230     -291.0927     2                    -26.8718    72635         
   4603  2442     -146.4619     4                    -30.7389    81405         
   5177  2907    infeasible                          -30.7389   101167         
   7986  4235    infeasible                          -42.6098   134598         
Elapsed time = 23.77 sec. (7521.23 ticks, tree = 53.33 MB, solutions = 0)
   8372  4770    infeasible                          -44.8454   148562         
*  8427+   88                        -5511.3904      -44.8454            99.19%
  10575   795     -532.6262     3    -5511.3904      -44.8454   155632   99.19%
  14069  2136     -141.5780     8     -918.7676     -115.3642   168875   87.44%
  15440  4161    infeasible           -918.7676     -127.7744   187127   86.09%
  17055   858     -291.0927     5     -918.7676     -127.7744   195539   86.09%
  20681  2455    infeasible           -918.7676     -145.1842   208171   84.20%
  24745  5604        cutoff           -918.7676     -236.5884   229924   74.25%
  28697  8026     -291.0927     8     -918.7676     -244.4116   246235   73.40%
  32489 11417     -291.0927     7     -918.7676     -252.9111   268667   72.47%
Elapsed time = 73.05 sec. (22997.02 ticks, tree = 56.60 MB, solutions = 6)
  36409 14069     -404.4955     2     -918.7676     -253.8358   286187   72.37%
  40442 17278     -291.0927     5     -918.7676     -261.2723   308320   71.56%
  44676 20742     -360.9958     3     -918.7676     -261.2723   335428   71.56%
  48533 22284     -404.4955     1     -918.7676     -261.2723   347861   71.56%
  52643 24368        cutoff           -918.7676     -261.2723   363697   71.56%
  56367 30344     -360.9958     2     -918.7676     -261.2723   409716   71.56%
  60432 29870     -340.2599     9     -918.7676     -261.2723   406127   71.56%
  64373 33356     -404.4955     1     -918.7676     -261.2723   434046   71.56%
  67902 35006        cutoff           -918.7676     -261.2723   447250   71.56%
  70907 37231     -360.9958     2     -918.7676     -263.0976   465703   71.36%
Elapsed time = 114.70 sec. (32536.19 ticks, tree = 192.64 MB, solutions = 6)
  74135 40155     -265.8185     4     -918.7676     -263.3993   493889   71.33%
  78341 41232        cutoff           -918.7676     -265.8185   503835   71.07%
  82215 41502     -404.4955     1     -918.7676     -265.8185   506666   71.07%
  84357 44338     -291.0927     4     -918.7676     -265.8185   536983   71.07%
  85520 45391    infeasible           -918.7676     -265.8185   548656   71.07%
  88233 47940     -340.2599     5     -918.7676     -265.8185   579233   71.07%
  93128 48227     -319.5239     8     -918.7676     -265.8185   582812   71.07%
  97659 52370     -291.0927     6     -918.7676     -270.5733   622742   70.55%
 102172 54835     -360.9958     3     -918.7676     -272.6304   644343   70.33%
 106590 55513     -291.0927    10     -918.7676     -283.3668   649917   69.16%
Elapsed time = 151.25 sec. (42074.89 ticks, tree = 287.25 MB, solutions = 6)
 110862 64286     -404.4955     3     -918.7676     -285.7762   720743   68.90%
 115483 64354     -404.4955     1     -918.7676     -285.7762   721440   68.90%
 120021 66400     -360.9958     3     -918.7676     -285.7762   736837   68.90%
 124444 68566     -350.6278     8     -918.7676     -291.0927   754832   68.32%
 128850 71529     -404.4955     2     -918.7676     -291.0927   780540   68.32%
 133014 72769     -329.8919    10     -918.7676     -291.0927   792082   68.32%
 137196 76352     -360.9958     3     -918.7676     -291.0927   825338   68.32%
 141275 79707     -360.9958     2     -918.7676     -291.0927   854405   68.32%
 145398 81498     -360.9958     3     -918.7676     -291.0927   868849   68.32%
 149839 87952     -360.9958     2     -918.7676     -291.0927   921709   68.32%
Elapsed time = 196.45 sec. (51614.85 ticks, tree = 458.42 MB, solutions = 6)
 154512 88435     -360.9958     4     -918.7676     -291.0927   926420   68.32%
 159113 88751     -360.9958     3     -918.7676     -291.0927   928926   68.32%
 163883 90865     -404.4955     1     -918.7676     -291.0927   946643   68.32%
 168657 96142     -360.9958     3     -918.7676     -291.0927   991470   68.32%
 173524 98157     -360.9958     3     -918.7676     -291.0927  1008357   68.32%
 178313 103771     -360.9958     4     -918.7676     -291.0927  1052738   68.32%
 183208 111889     -360.9958     6     -918.7676     -291.0927  1116711   68.32%
 187945 110025     -404.4955     2     -918.7676     -291.0927  1101819   68.32%
 192683 110154     -360.9958     3     -918.7676     -291.0927  1102658   68.32%
 196973 116014     -360.9958     3     -918.7676     -291.0927  1148371   68.32%
Elapsed time = 239.70 sec. (61153.04 ticks, tree = 605.06 MB, solutions = 6)
 201198 121809     -329.8919    10     -918.7676     -291.0927  1191967   68.32%
 205263 122706     -404.4955     2     -918.7676     -291.0927  1198723   68.32%
 209332 126878     -404.4955     2     -918.7676     -291.0927  1229586   68.32%
 213375 127660     -309.1560    12     -918.7676     -291.0927  1235555   68.32%
 217398 132947     -404.4955     2     -918.7676     -291.0927  1274108   68.32%
 221473 131638     -340.2599     8     -918.7676     -291.0927  1264406   68.32%
 225606 134966     -319.5239     8     -918.7676     -291.0927  1289093   68.32%
 229717 143590    infeasible           -918.7676     -291.0927  1351792   68.32%
 233909 140901     -404.4955     2     -918.7676     -291.0927  1332459   68.32%
 238264 149209     -360.9958     2     -918.7676     -291.0927  1393465   68.32%
Elapsed time = 280.55 sec. (70692.13 ticks, tree = 785.21 MB, solutions = 6)
 242978 146562     -350.6278     7     -918.7676     -291.0927  1373751   68.32%
 247723 156133     -360.9958     4     -918.7676     -291.0927  1445840   68.32%
 252123 151243     -350.6278     7     -918.7676     -291.0927  1409132   68.32%
 255135 156773     -404.4955     1     -918.7676     -291.0927  1450720   68.32%

Cover cuts applied:  25
Implied bound cuts applied:  24
Flow cuts applied:  9
Mixed integer rounding cuts applied:  3
Gomory fractional cuts applied:  6

Root node processing (before b&c):
  Real time             =    6.59 sec. (4400.98 ticks)
Parallel b&c, 32 threads:
  Real time             =  282.73 sec. (70614.30 ticks)
  Sync time (average)   =    2.50 sec.
  Wait time (average)   =    0.34 sec.
                          ------------
Total (root+branch&cut) =  289.33 sec. (75015.28 ticks)

Solution pool: 6 solutions saved.

MIP - Deterministic time limit exceeded, integer feasible:  Objective = -9.1876764791e+02
Current MIP best bound = -2.9109266821e+02 (gap = 627.675, 68.32%)
Solution time =  289.34 sec.  Iterations = 1517675  Nodes = 255944 (165384)
Deterministic time = 75015.44 ticks  (259.26 ticks/sec)

CPLEX> Incumbent solution written to file 'C:\Users\llavin\Desktop\test826\logs\tmpaepjuu_j.cplex.sol'.
CPLEX> NOTE: no warmstart specified for MIP iteration, default behavior is true
NOTE: resolving with all competitive generators using storage-only solution to warmstart
Solving...

Welcome to IBM(R) ILOG(R) CPLEX(R) Interactive Optimizer 12.9.0.0
  with Simplex, Mixed Integer & Barrier Optimizers
5725-A06 5725-A29 5724-Y48 5724-Y49 5724-Y54 5724-Y55 5655-Y21
Copyright IBM Corp. 1988, 2019.  All Rights Reserved.

Type 'help' for a list of available commands.
Type 'help' followed by a command name for more
information on commands.

CPLEX> Logfile 'cplex.log' closed.
Logfile 'C:\Users\llavin\Desktop\test826\logs\tmp9x7xz9gf.cplex.log' open.
CPLEX> New value for parallel optimization mode: -1
CPLEX> New value for mixed integer optimality gap tolerance: 0.01
CPLEX> New value for integrality tolerance: 1e-09
CPLEX> New value for feasibility tolerance: 0.001
CPLEX> New value for deterministic time limit in ticks: 75000
CPLEX> Problem 'C:\Users\llavin\Desktop\test826\logs\tmp7n6p_xqf.pyomo.lp' read.
Read time = 0.27 sec. (14.75 ticks)
CPLEX> MIP start file 'C:\Users\llavin\Desktop\test826\logs\tmphyj22y9_.cplex.mst' read.
CPLEX> Problem name         : C:\Users\llavin\Desktop\test826\logs\tmp7n6p_xqf.pyomo.lp
Objective sense      : Maximize
Variables            :   54525  [Nneg: 1,  Box: 22720,  Free: 4464,
                                 Binary: 27340]
Objective nonzeros   :    9749
Linear constraints   :  123205  [Less: 41346,  Greater: 59096,  Equal: 22763]
  Nonzeros           :  291753
  RHS nonzeros       :   67491

Variables            : Min LB: -5000.000        Max UB: 1000000.       
Objective nonzeros   : Min   : 0.4000000        Max   : 2500.000       
Linear constraints   :
  Nonzeros           : Min   : 0.4000000        Max   : 1000000.       
  RHS nonzeros       : Min   : 0.4000000        Max   : 1000000.       
CPLEX> CPXPARAM_Parallel                                -1
CPXPARAM_Simplex_Tolerances_Feasibility          0.001
CPXPARAM_DetTimeLimit                            75000
CPXPARAM_MIP_Tolerances_MIPGap                   0.01
CPXPARAM_MIP_Tolerances_Integrality              1.0000000000000001e-09
Warning:  No solution found from 1 MIP starts.
Retaining values of one MIP start for possible repair.
Tried aggregator 3 times.
MIP Presolve eliminated 88701 rows and 19745 columns.
MIP Presolve added 3371 rows and 0 columns.
MIP Presolve modified 24870 coefficients.
Aggregator did 12959 substitutions.
Reduced MIP has 24916 rows, 21265 columns, and 71055 nonzeros.
Reduced MIP has 8400 binaries, 0 generals, 0 SOSs, and 0 indicators.
Presolve time = 0.31 sec. (176.45 ticks)
Probing fixed 385 vars, tightened 2834 bounds.
Probing time = 1.22 sec. (893.11 ticks)
Tried aggregator 2 times.
MIP Presolve eliminated 876 rows and 779 columns.
MIP Presolve modified 2213 coefficients.
Aggregator did 44 substitutions.
Reduced MIP has 23996 rows, 20442 columns, and 68367 nonzeros.
Reduced MIP has 8013 binaries, 0 generals, 0 SOSs, and 0 indicators.
Presolve time = 0.09 sec. (69.47 ticks)
Probing time = 0.05 sec. (15.85 ticks)
Clique table members: 6293.
MIP emphasis: balance optimality and feasibility.
MIP search method: dynamic search.
Parallel mode: opportunistic, using up to 32 threads.
Root relaxation solution time = 0.44 sec. (560.52 ticks)

        Nodes                                         Cuts/
   Node  Left     Objective  IInf  Best Integer    Best Bound    ItCnt     Gap

      0     0      -23.4747   659                    -23.4747     7071         
Repair heuristic found nothing.
      0     3    infeasible                          -23.4747     7080         
Elapsed time = 8.11 sec. (4567.93 ticks, tree = 0.02 MB, solutions = 0)
    485    66    infeasible                          -26.8718     9774         
    817   450    -6235.3101    13                    -26.8718    21852         
   1420   715      -40.4929     1                    -26.8718    30410         
   1998   912    infeasible                          -26.8718    39143         
   2599  1193     -315.4625     4                    -26.8718    49581         
   3194  1564   -10573.8167    37                    -26.8718    61572         
*  3453+ 1796                       -37795.7642      -26.8718            99.93%
*  3669  1888      integral     0   -26829.1635      -26.8718    68877   99.90%
   4035  1811      -40.4929     5   -26829.1635      -26.8718    71268   99.90%
   4712  1935     -917.9888     3   -26829.1635      -30.7389    76073   99.89%
   7615  4015        cutoff         -26829.1635      -40.9040   102226   99.85%
Elapsed time = 24.09 sec. (7541.89 ticks, tree = 77.77 MB, solutions = 2)
   8594  5109    infeasible         -26829.1635      -56.4901   118197   99.79%
  10728  1116      -40.9469     2   -26829.1635      -56.4901   126813   99.79%
  16100  4407     -195.3554     1   -26829.1635      -56.4901   141573   99.79%
  21771  7075     -205.9268     2   -26829.1635      -56.4901   154761   99.79%
  26959  8813    infeasible         -26829.1635      -56.4901   164336   99.79%
  31991 14433      -47.9181     1   -26829.1635      -56.4901   193835   99.79%
  37832 17463     -200.3902     2   -26829.1635      -56.4901   208810   99.79%
  43999 19504     -195.3554     2   -26829.1635      -56.4901   218059   99.79%
  50125 23759      -59.2094     1   -26829.1635      -56.4901   236297   99.79%
  56173 24775     -200.3902     2   -26829.1635      -56.4901   241001   99.79%
Elapsed time = 78.73 sec. (20379.58 ticks, tree = 186.01 MB, solutions = 2)
  60053 31107      -55.7357     1   -26829.1635      -56.4901   266590   99.79%
  63750 33398     -195.3554     2   -26829.1635      -56.4901   275989   99.79%
  69770 33538     -202.8084     2   -26829.1635      -56.4901   276642   99.79%
  76190 40949    infeasible         -26829.1635      -56.4901   305739   99.79%
  82253 45360      -51.6155     1   -26829.1635      -56.4901   325301   99.79%
  87457 43928      -59.2094     1   -26829.1635      -56.4901   317501   99.79%
  92479 47532     -225.9092     2   -26829.1635      -56.4901   336728   99.79%
  98335 50971      -55.7357     1   -26829.1635      -56.4901   358247   99.79%
 104455 52653     -211.0287     2   -26829.1635      -56.4901   369098   99.79%
 110882 55107     -203.3711     2   -26829.1635      -56.4901   381827   99.79%
Elapsed time = 128.11 sec. (29917.83 ticks, tree = 419.38 MB, solutions = 2)
 117185 62780     -203.3711     2   -26829.1635      -56.4901   414427   99.79%
 123091 60238      -67.1156     1   -26829.1635      -56.4901   404400   99.79%
 128534 64207      -50.1536     1   -26829.1635      -56.4901   420169   99.79%
 133620 72059    infeasible         -26829.1635      -56.4901   450182   99.79%
 138655 70568    infeasible         -26829.1635      -56.4901   444704   99.79%
 143211 72561     -211.0287     3   -26829.1635      -56.4901   452027   99.79%
 147930 76039     -195.3554     1   -26829.1635      -56.4901   464810   99.79%
 152875 82390     -211.0287     3   -26829.1635      -56.4901   488339   99.79%
 159149 79891      -50.1536     1   -26829.1635      -56.4901   479132   99.79%
 165662 82473      -50.1536     1   -26829.1635      -56.4901   488626   99.79%
Elapsed time = 175.72 sec. (39455.21 ticks, tree = 631.47 MB, solutions = 2)
 172183 94270      -66.3033     1   -26829.1635      -56.4901   533167   99.79%
 178780 86696    infeasible         -26829.1635      -56.4901   504667   99.79%
 185244 98473    infeasible         -26829.1635      -56.4901   548831   99.79%
 191377 101497     -211.0287     2   -26829.1635      -56.4901   560343   99.79%
 196917 105887     -195.3554     2   -26829.1635      -56.4901   577190   99.79%
 202167 112209      -55.7357     1   -26829.1635      -56.4901   602128   99.79%
 206900 103770     -188.2645     1   -26829.1635      -56.4901   568904   99.79%
 211523 113966    infeasible         -26829.1635      -56.4901   609283   99.79%
 216965 113040     -202.8084     2   -26829.1635      -56.4901   605460   99.79%
 222071 115757    infeasible         -26829.1635      -56.4901   616407   99.79%
Elapsed time = 219.25 sec. (48993.68 ticks, tree = 890.24 MB, solutions = 2)
 226359 115855     -225.9092     3   -26829.1635      -56.4901   616802   99.79%
 229991 118855     -200.3902     2   -26829.1635      -56.4901   628744   99.79%
 231859 120712      -51.6155     1   -26829.1635      -56.4901   636286   99.79%
 232015 131563    infeasible         -26829.1635      -58.0678   684755   99.78%
 232738   293        cutoff         -26829.1635      -66.0152   690924   99.75%
 234184   924    -3414.7722    12   -26829.1635     -139.3764   700623   99.48%
 236106  2633     -918.7676     4   -26829.1635     -146.1062   722967   99.46%
 238072  2698    -1574.9788     9   -26829.1635     -236.5884   724453   99.12%
 239992  4590     -365.9589     5   -26829.1635     -236.5884   758413   99.12%
 242560  6438    -2076.7786     8   -26829.1635     -241.7362   786373   99.10%
Elapsed time = 263.72 sec. (61138.07 ticks, tree = 66.66 MB, solutions = 2)
 245027  6786     -595.9283     3   -26829.1635     -245.1387   791238   99.09%
 247281  8564     -404.7890     3   -26829.1635     -254.1682   816671   99.05%
 249267 10418     -291.0927     3   -26829.1635     -255.0719   840117   99.05%
 251781 11467    -2075.0844     6   -26829.1635     -261.2723   853834   99.03%
 254466 13891    infeasible         -26829.1635     -263.0976   887547   99.02%
 257241 13033    -2040.7573     6   -26829.1635     -263.0976   875926   99.02%
 259667 15658     -844.4018     4   -26829.1635     -263.2252   913176   99.02%
 261827 18774     -844.4018     5   -26829.1635     -263.6171   961981   99.02%
 263657 20450    -2146.0138     6   -26829.1635     -276.5292   987962   98.97%
 265409 20508    -2124.1345     6   -26829.1635     -291.0927   988661   98.92%
Elapsed time = 311.55 sec. (70678.59 ticks, tree = 180.77 MB, solutions = 2)
 267723 21112     -373.6662     5   -26829.1635     -291.0927   996761   98.92%
 269660 23401    -2124.1345     7   -26829.1635     -291.0927  1026453   98.92%
 270974 24639    infeasible         -26829.1635     -291.0927  1042701   98.92%
 271428 24455    -2146.0138     7   -26829.1635     -291.0927  1040634   98.92%

GUB cover cuts applied:  1
Cover cuts applied:  20
Implied bound cuts applied:  21
Flow cuts applied:  24
Mixed integer rounding cuts applied:  3
Gomory fractional cuts applied:  25

Root node processing (before b&c):
  Real time             =    6.95 sec. (4549.63 ticks)
Parallel b&c, 32 threads:
  Real time             =  311.47 sec. (70477.15 ticks)
  Sync time (average)   =    3.04 sec.
  Wait time (average)   =    0.55 sec.
                          ------------
Total (root+branch&cut) =  318.42 sec. (75026.78 ticks)

Solution pool: 2 solutions saved.

MIP - Deterministic time limit exceeded, integer feasible:  Objective = -2.6829163527e+04
Current MIP best bound = -2.9109266821e+02 (gap = 26538.1, 98.92%)
Solution time =  318.45 sec.  Iterations = 1110953  Nodes = 271498 (30060)
Deterministic time = 75026.93 ticks  (235.60 ticks/sec)

CPLEX> Incumbent solution written to file 'C:\Users\llavin\Desktop\test826\logs\tmp7m4cnp0q.cplex.sol'.
CPLEX> Exporting results... 
